p cnf 51 501
1 2 3 4 0
1 2 3 4 5 0
1 2 3 5 0
1 2 4 5 0
1 3 4 5 0
2 3 4 5 0
6 7 8 9 0
6 7 8 10 0
6 7 8 11 0
6 7 8 12 0
6 7 9 10 0
6 7 9 11 0
6 7 9 12 0
6 7 10 11 0
6 7 10 12 0
6 7 11 12 0
6 8 9 10 0
6 8 9 11 0
6 8 9 12 0
6 8 10 11 0
6 8 10 12 0
6 8 11 12 0
6 9 10 11 0
6 9 10 12 0
6 9 11 12 0
6 10 11 12 0
7 8 9 10 0
7 8 9 11 0
7 8 9 12 0
7 8 10 11 0
7 8 10 12 0
7 8 11 12 0
7 9 10 11 0
7 9 10 12 0
7 9 11 12 0
7 10 11 12 0
8 9 10 11 0
8 9 10 12 0
8 9 11 12 0
8 10 11 12 0
9 10 11 12 0
6 7 8 9 10 0
6 7 8 9 11 0
6 7 8 9 12 0
6 7 8 10 11 0
6 7 8 10 12 0
6 7 8 11 12 0
6 7 9 10 11 0
6 7 9 10 12 0
6 7 9 11 12 0
6 7 10 11 12 0
6 8 9 10 11 0
6 8 9 10 12 0
6 8 9 11 12 0
6 8 10 11 12 0
6 9 10 11 12 0
7 8 9 10 11 0
7 8 9 10 12 0
7 8 9 11 12 0
7 8 10 11 12 0
7 9 10 11 12 0
8 9 10 11 12 0
13 14 15 16 17 0
13 14 15 16 18 0
13 14 15 16 19 0
13 14 15 17 18 0
13 14 15 17 19 0
13 14 15 18 19 0
13 14 16 17 18 0
13 14 16 17 19 0
13 14 16 18 19 0
13 14 17 18 19 0
13 15 16 17 18 0
13 15 16 17 19 0
13 15 16 18 19 0
13 15 17 18 19 0
13 16 17 18 19 0
14 15 16 17 18 0
14 15 16 17 19 0
14 15 16 18 19 0
14 15 17 18 19 0
14 16 17 18 19 0
15 16 17 18 19 0
20 21 22 23 24 0
20 21 22 23 25 0
20 21 22 24 25 0
20 21 23 24 25 0
20 22 23 24 25 0
21 22 23 24 25 0
26 27 28 29 30 0
26 27 28 29 31 0
26 27 28 30 31 0
26 27 29 30 31 0
26 28 29 30 31 0
27 28 29 30 31 0
32 33 34 35 36 0
32 33 34 35 37 0
32 33 34 35 38 0
32 33 34 36 37 0
32 33 34 36 38 0
32 33 34 37 38 0
32 33 35 36 37 0
32 33 35 36 38 0
32 33 35 37 38 0
32 33 36 37 38 0
32 34 35 36 37 0
32 34 35 36 38 0
32 34 35 37 38 0
32 34 36 37 38 0
32 35 36 37 38 0
33 34 35 36 37 0
33 34 35 36 38 0
33 34 35 37 38 0
33 34 36 37 38 0
33 35 36 37 38 0
34 35 36 37 38 0
39 40 41 42 0
39 40 41 43 0
39 40 41 44 0
39 40 42 43 0
39 40 42 44 0
39 40 43 44 0
39 41 42 43 0
39 41 42 44 0
39 41 43 44 0
39 42 43 44 0
39 40 41 42 43 0
39 40 41 42 44 0
39 40 41 43 44 0
39 40 42 43 44 0
39 41 42 43 44 0
40 41 42 43 0
40 41 42 44 0
40 41 43 44 0
40 42 43 44 0
41 42 43 44 0
40 41 42 43 44 0
45 46 47 48 0
45 46 47 49 0
45 46 47 50 0
45 46 47 51 0
45 46 47 48 49 0
45 46 47 48 50 0
45 46 47 48 51 0
45 46 47 49 50 0
45 46 47 49 51 0
45 46 47 50 51 0
45 46 48 49 0
45 46 48 50 0
45 46 48 51 0
45 46 49 50 0
45 46 49 51 0
45 46 50 51 0
45 46 48 49 50 0
45 46 48 49 51 0
45 46 48 50 51 0
45 46 49 50 51 0
45 47 48 49 0
45 47 48 50 0
45 47 48 51 0
45 47 49 50 0
45 47 49 51 0
45 47 50 51 0
45 47 48 49 50 0
45 47 48 49 51 0
45 47 48 50 51 0
45 47 49 50 51 0
45 48 49 50 0
45 48 49 51 0
45 48 50 51 0
45 49 50 51 0
45 48 49 50 51 0
46 47 48 49 0
46 47 48 50 0
46 47 48 51 0
46 47 49 50 0
46 47 49 51 0
46 47 50 51 0
46 47 48 49 50 0
46 47 48 49 51 0
46 47 48 50 51 0
46 47 49 50 51 0
46 48 49 50 0
46 48 49 51 0
46 48 50 51 0
46 49 50 51 0
46 48 49 50 51 0
47 48 49 50 0
47 48 49 51 0
47 48 50 51 0
47 49 50 51 0
47 48 49 50 51 0
48 49 50 51 0
-13 -20 -26 -32 0
-13 -20 -26 0
-13 -20 -26 -45 0
-13 -20 -32 0
-13 -20 -32 -45 0
-13 -20 -45 0
-13 -26 -32 0
-13 -26 -32 -45 0
-13 -26 -45 0
-13 -32 -45 0
-20 -26 -32 0
-20 -26 -32 -45 0
-20 -26 -45 0
-20 -32 -45 0
-26 -32 -45 0
-13 -20 -26 -32 0
-13 -20 -26 -32 -45 0
-13 -20 -26 -45 0
-13 -20 -32 -45 0
-13 -26 -32 -45 0
-20 -26 -32 -45 0
-6 -14 -21 0
-6 -14 -21 -33 0
-6 -14 -21 -39 0
-6 -14 -21 -46 0
-6 -14 -33 0
-6 -14 -39 0
-6 -14 -46 0
-6 -14 -33 -39 0
-6 -14 -33 -46 0
-6 -14 -39 -46 0
-6 -21 -33 0
-6 -21 -39 0
-6 -21 -46 0
-6 -21 -33 -39 0
-6 -21 -33 -46 0
-6 -21 -39 -46 0
-6 -33 -39 0
-6 -33 -46 0
-6 -39 -46 0
-6 -33 -39 -46 0
-14 -21 -33 0
-14 -21 -39 0
-14 -21 -46 0
-14 -21 -33 -39 0
-14 -21 -33 -46 0
-14 -21 -39 -46 0
-14 -33 -39 0
-14 -33 -46 0
-14 -39 -46 0
-14 -33 -39 -46 0
-21 -33 -39 0
-21 -33 -46 0
-21 -39 -46 0
-21 -33 -39 -46 0
-33 -39 -46 0
-6 -14 -21 -33 0
-6 -14 -21 -39 0
-6 -14 -21 -46 0
-6 -14 -21 -33 -39 0
-6 -14 -21 -33 -46 0
-6 -14 -21 -39 -46 0
-6 -14 -33 -39 0
-6 -14 -33 -46 0
-6 -14 -39 -46 0
-6 -14 -33 -39 -46 0
-6 -21 -33 -39 0
-6 -21 -33 -46 0
-6 -21 -39 -46 0
-6 -21 -33 -39 -46 0
-6 -33 -39 -46 0
-14 -21 -33 -39 0
-14 -21 -33 -46 0
-14 -21 -39 -46 0
-14 -21 -33 -39 -46 0
-14 -33 -39 -46 0
-21 -33 -39 -46 0
-1 -7 -15 -22 0
-1 -7 -15 -22 -34 0
-1 -7 -15 -22 -47 0
-1 -7 -15 -34 0
-1 -7 -15 -47 0
-1 -7 -15 -34 -47 0
-1 -7 -22 -34 0
-1 -7 -22 -47 0
-1 -7 -22 -34 -47 0
-1 -7 -34 -47 0
-1 -15 -22 -34 0
-1 -15 -22 -47 0
-1 -15 -22 -34 -47 0
-1 -15 -34 -47 0
-1 -22 -34 -47 0
-7 -15 -22 -34 0
-7 -15 -22 -47 0
-7 -15 -22 -34 -47 0
-7 -15 -34 -47 0
-7 -22 -34 -47 0
-15 -22 -34 -47 0
-2 -8 -16 -23 -27 0
-2 -8 -16 -23 -35 0
-2 -8 -16 -23 -40 0
-2 -8 -16 -27 -35 0
-2 -8 -16 -27 -40 0
-2 -8 -16 -35 -40 0
-2 -8 -23 -27 -35 0
-2 -8 -23 -27 -40 0
-2 -8 -23 -35 -40 0
-2 -8 -27 -35 -40 0
-2 -16 -23 -27 -35 0
-2 -16 -23 -27 -40 0
-2 -16 -23 -35 -40 0
-2 -16 -27 -35 -40 0
-2 -23 -27 -35 -40 0
-8 -16 -23 -27 -35 0
-8 -16 -23 -27 -40 0
-8 -16 -23 -35 -40 0
-8 -16 -27 -35 -40 0
-8 -23 -27 -35 -40 0
-16 -23 -27 -35 -40 0
-3 -9 -17 -28 0
-3 -9 -17 -36 0
-3 -9 -17 -41 0
-3 -9 -17 -48 0
-3 -9 -17 -28 -36 0
-3 -9 -17 -28 -41 0
-3 -9 -17 -28 -48 0
-3 -9 -17 -36 -41 0
-3 -9 -17 -36 -48 0
-3 -9 -17 -41 -48 0
-3 -9 -28 -36 0
-3 -9 -28 -41 0
-3 -9 -28 -48 0
-3 -9 -36 -41 0
-3 -9 -36 -48 0
-3 -9 -41 -48 0
-3 -9 -28 -36 -41 0
-3 -9 -28 -36 -48 0
-3 -9 -28 -41 -48 0
-3 -9 -36 -41 -48 0
-3 -17 -28 -36 0
-3 -17 -28 -41 0
-3 -17 -28 -48 0
-3 -17 -36 -41 0
-3 -17 -36 -48 0
-3 -17 -41 -48 0
-3 -17 -28 -36 -41 0
-3 -17 -28 -36 -48 0
-3 -17 -28 -41 -48 0
-3 -17 -36 -41 -48 0
-3 -28 -36 -41 0
-3 -28 -36 -48 0
-3 -28 -41 -48 0
-3 -36 -41 -48 0
-3 -28 -36 -41 -48 0
-9 -17 -28 -36 0
-9 -17 -28 -41 0
-9 -17 -28 -48 0
-9 -17 -36 -41 0
-9 -17 -36 -48 0
-9 -17 -41 -48 0
-9 -17 -28 -36 -41 0
-9 -17 -28 -36 -48 0
-9 -17 -28 -41 -48 0
-9 -17 -36 -41 -48 0
-9 -28 -36 -41 0
-9 -28 -36 -48 0
-9 -28 -41 -48 0
-9 -36 -41 -48 0
-9 -28 -36 -41 -48 0
-17 -28 -36 -41 0
-17 -28 -36 -48 0
-17 -28 -41 -48 0
-17 -36 -41 -48 0
-17 -28 -36 -41 -48 0
-28 -36 -41 -48 0
-4 -10 -29 0
-4 -10 0
-4 -10 -42 0
-4 -10 -49 0
-4 -10 -29 0
-4 -10 -29 -42 0
-4 -10 -29 -49 0
-4 -10 -42 0
-4 -10 -49 0
-4 -10 -42 -49 0
-4 -10 -29 0
-4 -10 -29 -42 0
-4 -10 -29 -49 0
-4 -10 -42 0
-4 -10 -49 0
-4 -10 -42 -49 0
-4 -10 -29 -42 0
-4 -10 -29 -49 0
-4 -10 -29 -42 -49 0
-4 -10 -42 -49 0
-4 -29 0
-4 -29 -42 0
-4 -29 -49 0
-4 -42 0
-4 -49 0
-4 -42 -49 0
-4 -29 -42 0
-4 -29 -49 0
-4 -29 -42 -49 0
-4 -42 -49 0
-4 -29 -42 0
-4 -29 -49 0
-4 -29 -42 -49 0
-4 -42 -49 0
-4 -29 -42 -49 0
-10 -29 0
-10 -29 -42 0
-10 -29 -49 0
-10 -42 0
-10 -49 0
-10 -42 -49 0
-10 -29 -42 0
-10 -29 -49 0
-10 -29 -42 -49 0
-10 -42 -49 0
-10 -29 -42 0
-10 -29 -49 0
-10 -29 -42 -49 0
-10 -42 -49 0
-10 -29 -42 -49 0
-29 -42 0
-29 -49 0
-29 -42 -49 0
-42 -49 0
-29 -42 -49 0
-29 -42 -49 0
-11 -18 -24 -30 -37 0
-11 -18 -24 -30 -43 0
-11 -18 -24 -30 -50 0
-11 -18 -24 -37 -43 0
-11 -18 -24 -37 -50 0
-11 -18 -24 -43 -50 0
-11 -18 -30 -37 -43 0
-11 -18 -30 -37 -50 0
-11 -18 -30 -43 -50 0
-11 -18 -37 -43 -50 0
-11 -24 -30 -37 -43 0
-11 -24 -30 -37 -50 0
-11 -24 -30 -43 -50 0
-11 -24 -37 -43 -50 0
-11 -30 -37 -43 -50 0
-18 -24 -30 -37 -43 0
-18 -24 -30 -37 -50 0
-18 -24 -30 -43 -50 0
-18 -24 -37 -43 -50 0
-18 -30 -37 -43 -50 0
-24 -30 -37 -43 -50 0
-5 -12 -19 -25 -31 0
-5 -12 -19 -25 -38 0
-5 -12 -19 -25 -44 0
-5 -12 -19 -25 -51 0
-5 -12 -19 -31 -38 0
-5 -12 -19 -31 -44 0
-5 -12 -19 -31 -51 0
-5 -12 -19 -38 -44 0
-5 -12 -19 -38 -51 0
-5 -12 -19 -44 -51 0
-5 -12 -25 -31 -38 0
-5 -12 -25 -31 -44 0
-5 -12 -25 -31 -51 0
-5 -12 -25 -38 -44 0
-5 -12 -25 -38 -51 0
-5 -12 -25 -44 -51 0
-5 -12 -31 -38 -44 0
-5 -12 -31 -38 -51 0
-5 -12 -31 -44 -51 0
-5 -12 -38 -44 -51 0
-5 -19 -25 -31 -38 0
-5 -19 -25 -31 -44 0
-5 -19 -25 -31 -51 0
-5 -19 -25 -38 -44 0
-5 -19 -25 -38 -51 0
-5 -19 -25 -44 -51 0
-5 -19 -31 -38 -44 0
-5 -19 -31 -38 -51 0
-5 -19 -31 -44 -51 0
-5 -19 -38 -44 -51 0
-5 -25 -31 -38 -44 0
-5 -25 -31 -38 -51 0
-5 -25 -31 -44 -51 0
-5 -25 -38 -44 -51 0
-5 -31 -38 -44 -51 0
-12 -19 -25 -31 -38 0
-12 -19 -25 -31 -44 0
-12 -19 -25 -31 -51 0
-12 -19 -25 -38 -44 0
-12 -19 -25 -38 -51 0
-12 -19 -25 -44 -51 0
-12 -19 -31 -38 -44 0
-12 -19 -31 -38 -51 0
-12 -19 -31 -44 -51 0
-12 -19 -38 -44 -51 0
-12 -25 -31 -38 -44 0
-12 -25 -31 -38 -51 0
-12 -25 -31 -44 -51 0
-12 -25 -38 -44 -51 0
-12 -31 -38 -44 -51 0
-19 -25 -31 -38 -44 0
-19 -25 -31 -38 -51 0
-19 -25 -31 -44 -51 0
-19 -25 -38 -44 -51 0
-19 -31 -38 -44 -51 0
-25 -31 -38 -44 -51 0
